
12527577023
12527577023
12527577023
12527577023
12527577023
12527577023
12527577023
12527577023
12527577023
12527577023
2326983288
2326983288
2326983288
2326983288
2326983288
2326983288
2326983288
2326983288
2326983288
2326983288
2292212691
2292212691
2292212691
2292212691
2292212691
2292212691
2292212691
2292212691
2292212691
2292212691
2603868117
2603868117
2603868117
2603868117
2603868117
2603868117
2603868117
2603868117
2603868117
2603868117
2311833032
2311833032
2311833032
2311833032
2311833032
2311833032
2311833032
2311833032
2311833032
2311833032
